[[71, 80, 70, 69, 78, 77, 79, 88, 89, 90, 99, 98, 97, 96, 87, 95, 86, 85, 84, 94, 93, 92, 91, 83, 82, 73, 76, 75, 67, 68, 66, 74, 65, 64, 56, 59, 58, 49, 57, 55, 46, 47, 48, 39, 40, 38], [37, 28, 29, 30, 31, 21, 22, 19, 20, 11, 10, 2, 12, 3, 4, 13, 23, 15, 14, 5, 6, 7, 8, 9, 18, 17, 16, 24, 25, 26, 27, 35, 36, 44, 34, 43, 33, 42, 32, 41, 50, 51, 60, 52, 45, 54, 53, 63, 61, 62, 72, 81]]